100 500 10 200 10 100
62 107
89 61
71 35
69 78
83 151
54 102
22 103
75 104
85 11
79 51
62 50
38 39
66 70
100 181
28 182
41 95
19 122
77 87
36 194
53 78
30 158
43 184
57 154
89 185
17 94
11 148
74 29
44 179
92 60
97 55
25 171
16 164
73 130
31 84
44 48
70 89
71 144
60 77
91 150
22 75
31 131
30 191
69 21
89 60
23 171
33 124
39 67
81 100
38 172
10 109
76 147
53 37
90 82
81 179
67 179
40 109
69 109
100 103
41 111
88 34
36 80
10 67
66 80
29 123
45 152
82 105
16 63
75 179
90 59
92 178
11 75
61 180
45 29
61 138
11 57
11 34
75 155
55 85
45 69
50 119
20 94
17 130
19 147
75 103
91 131
72 54
50 11
24 193
99 150
79 173
76 92
53 145
44 131
43 114
89 92
75 53
68 47
78 123
27 148
92 32
